NAME 
OBJSENSE MAX
ROWS
 N  OBJ
 L  packing[0]
 L  packing[1]
 L  packing[2]
 L  packing[3]
 L  packing[4]
 L  packing[5]
 L  packing[6]
 L  packing[7]
 L  packing[8]
 L  packing[9]
 L  packing[10]
 L  packing[11]
 L  packing[12]
 L  packing[13]
 L  packing[14]
 L  packing[15]
 L  packing[16]
 L  packing[17]
 L  packing[18]
 L  packing[19]
 L  packing[20]
 L  packing[21]
 L  packing[22]
 L  packing[23]
 L  packing[24]
 L  packing[25]
 L  packing[26]
 L  packing[27]
 L  packing[28]
 L  packing[29]
 L  packing[30]
 L  packing[31]
 L  packing[32]
 L  packing[33]
 L  packing[34]
 L  packing[35]
 L  packing[36]
 L  packing[37]
 L  packing[38]
 L  packing[39]
 L  packing[40]
 L  packing[41]
 L  packing[42]
 L  packing[43]
 L  packing[44]
 L  packing[45]
 L  packing[46]
 L  packing[47]
 L  packing[48]
 L  packing[49]
 L  R50     
COLUMNS
    MARKER    'MARKER'                 'INTORG'
    x[1]      OBJ       26
    x[1]      packing[0]  53
    x[1]      packing[1]  120
    x[1]      packing[2]  147
    x[1]      packing[3]  66
    x[1]      packing[4]  66
    x[1]      packing[5]  179
    x[1]      packing[7]  28
    x[1]      packing[8]  71
    x[1]      packing[10]  120
    x[1]      packing[12]  177
    x[1]      packing[15]  123
    x[1]      packing[16]  182
    x[1]      packing[21]  146
    x[1]      packing[22]  5
    x[1]      packing[23]  130
    x[1]      packing[24]  138
    x[1]      packing[25]  46
    x[1]      packing[26]  170
    x[1]      packing[27]  96
    x[1]      packing[28]  194
    x[1]      packing[29]  193
    x[1]      packing[32]  91
    x[1]      packing[33]  29
    x[1]      packing[35]  150
    x[1]      packing[36]  101
    x[1]      packing[39]  74
    x[1]      packing[40]  82
    x[1]      packing[41]  156
    x[1]      packing[43]  196
    x[1]      packing[44]  102
    x[1]      packing[45]  80
    x[1]      packing[47]  116
    x[1]      R50       1
    x[2]      OBJ       181
    x[2]      packing[1]  124
    x[2]      packing[3]  131
    x[2]      packing[4]  161
    x[2]      packing[5]  169
    x[2]      packing[6]  63
    x[2]      packing[8]  79
    x[2]      packing[9]  103
    x[2]      packing[10]  31
    x[2]      packing[11]  6
    x[2]      packing[12]  71
    x[2]      packing[14]  97
    x[2]      packing[15]  29
    x[2]      packing[16]  113
    x[2]      packing[19]  110
    x[2]      packing[20]  161
    x[2]      packing[22]  91
    x[2]      packing[23]  110
    x[2]      packing[24]  155
    x[2]      packing[25]  180
    x[2]      packing[26]  194
    x[2]      packing[27]  2
    x[2]      packing[31]  32
    x[2]      packing[32]  91
    x[2]      packing[33]  67
    x[2]      packing[35]  25
    x[2]      packing[36]  17
    x[2]      packing[38]  132
    x[2]      packing[39]  80
    x[2]      packing[40]  110
    x[2]      packing[41]  105
    x[2]      packing[42]  197
    x[2]      packing[43]  33
    x[2]      packing[44]  67
    x[2]      packing[45]  138
    x[2]      packing[46]  171
    x[2]      packing[48]  58
    x[2]      packing[49]  147
    x[2]      R50       1
    x[3]      OBJ       62
    x[3]      packing[0]  193
    x[3]      packing[2]  59
    x[3]      packing[4]  179
    x[3]      packing[6]  137
    x[3]      packing[7]  91
    x[3]      packing[8]  119
    x[3]      packing[9]  48
    x[3]      packing[10]  2
    x[3]      packing[11]  101
    x[3]      packing[12]  87
    x[3]      packing[13]  18
    x[3]      packing[14]  146
    x[3]      packing[16]  48
    x[3]      packing[17]  154
    x[3]      packing[20]  142
    x[3]      packing[21]  68
    x[3]      packing[22]  168
    x[3]      packing[23]  52
    x[3]      packing[24]  190
    x[3]      packing[25]  87
    x[3]      packing[26]  197
    x[3]      packing[27]  91
    x[3]      packing[28]  6
    x[3]      packing[31]  45
    x[3]      packing[32]  161
    x[3]      packing[33]  91
    x[3]      packing[34]  79
    x[3]      packing[35]  9
    x[3]      packing[36]  18
    x[3]      packing[38]  44
    x[3]      packing[39]  20
    x[3]      packing[40]  157
    x[3]      packing[41]  92
    x[3]      packing[42]  101
    x[3]      packing[44]  84
    x[3]      packing[47]  110
    x[3]      packing[48]  160
    x[4]      OBJ       120
    x[4]      packing[0]  82
    x[4]      packing[1]  71
    x[4]      packing[2]  193
    x[4]      packing[3]  51
    x[4]      packing[5]  20
    x[4]      packing[6]  92
    x[4]      packing[7]  198
    x[4]      packing[9]  70
    x[4]      packing[10]  39
    x[4]      packing[11]  190
    x[4]      packing[13]  193
    x[4]      packing[15]  158
    x[4]      packing[16]  159
    x[4]      packing[17]  188
    x[4]      packing[19]  112
    x[4]      packing[21]  30
    x[4]      packing[23]  188
    x[4]      packing[24]  143
    x[4]      packing[25]  127
    x[4]      packing[27]  59
    x[4]      packing[28]  44
    x[4]      packing[29]  199
    x[4]      packing[32]  27
    x[4]      packing[34]  105
    x[4]      packing[35]  13
    x[4]      packing[36]  42
    x[4]      packing[37]  43
    x[4]      packing[40]  8
    x[4]      packing[41]  172
    x[4]      packing[42]  78
    x[4]      packing[43]  170
    x[4]      packing[45]  102
    x[4]      packing[46]  155
    x[4]      packing[47]  161
    x[4]      packing[49]  169
    x[5]      OBJ       43
    x[5]      packing[0]  67
    x[5]      packing[1]  65
    x[5]      packing[2]  16
    x[5]      packing[4]  25
    x[5]      packing[6]  157
    x[5]      packing[7]  44
    x[5]      packing[8]  12
    x[5]      packing[9]  85
    x[5]      packing[10]  26
    x[5]      packing[12]  34
    x[5]      packing[13]  47
    x[5]      packing[14]  49
    x[5]      packing[15]  54
    x[5]      packing[17]  118
    x[5]      packing[19]  142
    x[5]      packing[22]  159
    x[5]      packing[23]  190
    x[5]      packing[24]  175
    x[5]      packing[25]  198
    x[5]      packing[26]  69
    x[5]      packing[27]  53
    x[5]      packing[28]  44
    x[5]      packing[29]  107
    x[5]      packing[31]  88
    x[5]      packing[35]  57
    x[5]      packing[36]  60
    x[5]      packing[37]  134
    x[5]      packing[38]  95
    x[5]      packing[40]  58
    x[5]      packing[41]  38
    x[5]      packing[42]  34
    x[5]      packing[43]  190
    x[5]      packing[44]  36
    x[5]      packing[46]  180
    x[5]      packing[47]  119
    x[5]      packing[48]  26
    x[5]      packing[49]  180
    x[6]      OBJ       72
    x[6]      packing[0]  110
    x[6]      packing[1]  178
    x[6]      packing[2]  198
    x[6]      packing[3]  91
    x[6]      packing[4]  187
    x[6]      packing[5]  96
    x[6]      packing[6]  159
    x[6]      packing[9]  30
    x[6]      packing[10]  61
    x[6]      packing[11]  192
    x[6]      packing[13]  13
    x[6]      packing[14]  137
    x[6]      packing[15]  88
    x[6]      packing[16]  173
    x[6]      packing[17]  73
    x[6]      packing[18]  86
    x[6]      packing[19]  61
    x[6]      packing[20]  98
    x[6]      packing[21]  91
    x[6]      packing[23]  77
    x[6]      packing[24]  142
    x[6]      packing[26]  71
    x[6]      packing[27]  26
    x[6]      packing[28]  7
    x[6]      packing[29]  34
    x[6]      packing[30]  180
    x[6]      packing[31]  86
    x[6]      packing[32]  198
    x[6]      packing[33]  139
    x[6]      packing[34]  189
    x[6]      packing[35]  91
    x[6]      packing[36]  94
    x[6]      packing[37]  45
    x[6]      packing[38]  42
    x[6]      packing[40]  54
    x[6]      packing[41]  178
    x[6]      packing[42]  96
    x[6]      packing[43]  10
    x[6]      packing[44]  113
    x[6]      packing[45]  143
    x[6]      packing[46]  9
    x[6]      packing[48]  131
    x[6]      packing[49]  193
    x[7]      OBJ       80
    x[7]      packing[0]  119
    x[7]      packing[1]  114
    x[7]      packing[2]  182
    x[7]      packing[4]  2
    x[7]      packing[7]  8
    x[7]      packing[8]  170
    x[7]      packing[9]  192
    x[7]      packing[10]  85
    x[7]      packing[11]  85
    x[7]      packing[14]  54
    x[7]      packing[15]  147
    x[7]      packing[16]  138
    x[7]      packing[17]  94
    x[7]      packing[19]  108
    x[7]      packing[22]  142
    x[7]      packing[23]  115
    x[7]      packing[25]  15
    x[7]      packing[26]  117
    x[7]      packing[28]  51
    x[7]      packing[29]  129
    x[7]      packing[30]  141
    x[7]      packing[31]  198
    x[7]      packing[32]  185
    x[7]      packing[33]  198
    x[7]      packing[34]  6
    x[7]      packing[35]  198
    x[7]      packing[36]  158
    x[7]      packing[37]  44
    x[7]      packing[38]  157
    x[7]      packing[39]  104
    x[7]      packing[40]  84
    x[7]      packing[41]  198
    x[7]      packing[42]  39
    x[7]      packing[43]  7
    x[7]      packing[44]  194
    x[7]      packing[45]  33
    x[7]      packing[46]  130
    x[7]      packing[47]  90
    x[7]      packing[48]  94
    x[7]      packing[49]  156
    x[8]      OBJ       21
    x[8]      packing[0]  41
    x[8]      packing[1]  84
    x[8]      packing[5]  99
    x[8]      packing[6]  29
    x[8]      packing[8]  141
    x[8]      packing[9]  117
    x[8]      packing[11]  32
    x[8]      packing[12]  96
    x[8]      packing[13]  54
    x[8]      packing[15]  65
    x[8]      packing[18]  77
    x[8]      packing[19]  128
    x[8]      packing[20]  102
    x[8]      packing[21]  74
    x[8]      packing[23]  90
    x[8]      packing[24]  2
    x[8]      packing[25]  135
    x[8]      packing[27]  132
    x[8]      packing[28]  33
    x[8]      packing[29]  186
    x[8]      packing[32]  67
    x[8]      packing[33]  117
    x[8]      packing[34]  69
    x[8]      packing[35]  64
    x[8]      packing[36]  63
    x[8]      packing[37]  193
    x[8]      packing[38]  192
    x[8]      packing[39]  37
    x[8]      packing[42]  75
    x[8]      packing[43]  139
    x[8]      packing[45]  58
    x[8]      packing[47]  18
    x[8]      packing[48]  87
    x[8]      packing[49]  184
    x[9]      OBJ       3
    x[9]      packing[0]  75
    x[9]      packing[1]  76
    x[9]      packing[3]  182
    x[9]      packing[4]  73
    x[9]      packing[6]  42
    x[9]      packing[7]  96
    x[9]      packing[9]  88
    x[9]      packing[10]  134
    x[9]      packing[11]  50
    x[9]      packing[12]  184
    x[9]      packing[13]  134
    x[9]      packing[15]  70
    x[9]      packing[16]  33
    x[9]      packing[17]  144
    x[9]      packing[18]  15
    x[9]      packing[20]  182
    x[9]      packing[23]  141
    x[9]      packing[24]  39
    x[9]      packing[26]  12
    x[9]      packing[27]  142
    x[9]      packing[28]  135
    x[9]      packing[31]  76
    x[9]      packing[32]  163
    x[9]      packing[33]  5
    x[9]      packing[34]  75
    x[9]      packing[35]  197
    x[9]      packing[36]  132
    x[9]      packing[39]  4
    x[9]      packing[40]  61
    x[9]      packing[41]  90
    x[9]      packing[42]  155
    x[9]      packing[43]  137
    x[9]      packing[45]  27
    x[10]     OBJ       152
    x[10]     packing[0]  187
    x[10]     packing[2]  15
    x[10]     packing[3]  20
    x[10]     packing[4]  118
    x[10]     packing[5]  100
    x[10]     packing[6]  117
    x[10]     packing[7]  49
    x[10]     packing[10]  160
    x[10]     packing[11]  163
    x[10]     packing[13]  166
    x[10]     packing[14]  161
    x[10]     packing[16]  176
    x[10]     packing[18]  124
    x[10]     packing[19]  84
    x[10]     packing[20]  28
    x[10]     packing[21]  23
    x[10]     packing[22]  105
    x[10]     packing[23]  116
    x[10]     packing[24]  85
    x[10]     packing[25]  82
    x[10]     packing[27]  145
    x[10]     packing[29]  59
    x[10]     packing[30]  20
    x[10]     packing[31]  108
    x[10]     packing[32]  195
    x[10]     packing[33]  191
    x[10]     packing[34]  80
    x[10]     packing[36]  166
    x[10]     packing[37]  88
    x[10]     packing[38]  127
    x[10]     packing[39]  170
    x[10]     packing[40]  47
    x[10]     packing[41]  170
    x[10]     packing[43]  54
    x[10]     packing[44]  69
    x[10]     packing[45]  115
    x[10]     packing[48]  155
    x[10]     packing[49]  47
    x[11]     OBJ       19
    x[11]     packing[0]  107
    x[11]     packing[1]  12
    x[11]     packing[2]  24
    x[11]     packing[3]  20
    x[11]     packing[4]  39
    x[11]     packing[5]  162
    x[11]     packing[6]  30
    x[11]     packing[7]  14
    x[11]     packing[8]  49
    x[11]     packing[10]  14
    x[11]     packing[11]  72
    x[11]     packing[14]  27
    x[11]     packing[15]  94
    x[11]     packing[16]  23
    x[11]     packing[18]  170
    x[11]     packing[21]  171
    x[11]     packing[22]  4
    x[11]     packing[23]  136
    x[11]     packing[25]  155
    x[11]     packing[26]  61
    x[11]     packing[27]  168
    x[11]     packing[29]  173
    x[11]     packing[31]  56
    x[11]     packing[32]  2
    x[11]     packing[33]  181
    x[11]     packing[35]  55
    x[11]     packing[37]  32
    x[11]     packing[38]  16
    x[11]     packing[39]  107
    x[11]     packing[41]  169
    x[11]     packing[42]  59
    x[11]     packing[43]  157
    x[11]     packing[44]  114
    x[11]     packing[45]  128
    x[11]     packing[46]  144
    x[11]     packing[47]  53
    x[11]     packing[48]  41
    x[11]     packing[49]  172
    x[12]     OBJ       133
    x[12]     packing[1]  112
    x[12]     packing[2]  27
    x[12]     packing[3]  156
    x[12]     packing[4]  13
    x[12]     packing[5]  52
    x[12]     packing[6]  129
    x[12]     packing[7]  138
    x[12]     packing[8]  131
    x[12]     packing[9]  130
    x[12]     packing[11]  157
    x[12]     packing[12]  18
    x[12]     packing[13]  98
    x[12]     packing[14]  16
    x[12]     packing[16]  40
    x[12]     packing[17]  157
    x[12]     packing[18]  119
    x[12]     packing[19]  126
    x[12]     packing[21]  67
    x[12]     packing[24]  74
    x[12]     packing[25]  152
    x[12]     packing[26]  31
    x[12]     packing[27]  198
    x[12]     packing[28]  146
    x[12]     packing[29]  27
    x[12]     packing[31]  37
    x[12]     packing[32]  123
    x[12]     packing[33]  194
    x[12]     packing[34]  39
    x[12]     packing[35]  84
    x[12]     packing[37]  126
    x[12]     packing[38]  56
    x[12]     packing[39]  152
    x[12]     packing[40]  24
    x[12]     packing[42]  154
    x[12]     packing[44]  16
    x[12]     packing[46]  184
    x[12]     packing[47]  199
    x[12]     packing[48]  67
    x[12]     packing[49]  98
    x[12]     R50       1
    x[13]     OBJ       199
    x[13]     packing[1]  176
    x[13]     packing[2]  192
    x[13]     packing[3]  87
    x[13]     packing[4]  23
    x[13]     packing[7]  3
    x[13]     packing[8]  160
    x[13]     packing[9]  11
    x[13]     packing[12]  28
    x[13]     packing[17]  199
    x[13]     packing[18]  110
    x[13]     packing[19]  57
    x[13]     packing[21]  1
    x[13]     packing[22]  141
    x[13]     packing[24]  131
    x[13]     packing[26]  22
    x[13]     packing[27]  92
    x[13]     packing[28]  5
    x[13]     packing[29]  71
    x[13]     packing[32]  148
    x[13]     packing[33]  51
    x[13]     packing[34]  152
    x[13]     packing[35]  11
    x[13]     packing[36]  178
    x[13]     packing[37]  30
    x[13]     packing[38]  56
    x[13]     packing[40]  161
    x[13]     packing[41]  74
    x[13]     packing[42]  118
    x[13]     packing[43]  42
    x[13]     packing[44]  129
    x[13]     packing[45]  144
    x[13]     packing[47]  6
    x[13]     packing[48]  34
    x[13]     packing[49]  39
    x[13]     R50       1
    x[14]     OBJ       90
    x[14]     packing[0]  30
    x[14]     packing[2]  108
    x[14]     packing[3]  18
    x[14]     packing[6]  99
    x[14]     packing[7]  53
    x[14]     packing[8]  7
    x[14]     packing[9]  81
    x[14]     packing[12]  112
    x[14]     packing[13]  42
    x[14]     packing[14]  130
    x[14]     packing[15]  123
    x[14]     packing[18]  10
    x[14]     packing[19]  2
    x[14]     packing[20]  87
    x[14]     packing[21]  41
    x[14]     packing[22]  177
    x[14]     packing[24]  165
    x[14]     packing[25]  110
    x[14]     packing[27]  34
    x[14]     packing[28]  81
    x[14]     packing[30]  58
    x[14]     packing[32]  49
    x[14]     packing[33]  111
    x[14]     packing[34]  64
    x[14]     packing[35]  94
    x[14]     packing[36]  29
    x[14]     packing[37]  52
    x[14]     packing[38]  167
    x[14]     packing[40]  135
    x[14]     packing[41]  78
    x[14]     packing[42]  74
    x[14]     packing[43]  163
    x[14]     packing[45]  48
    x[14]     packing[46]  90
    x[14]     packing[47]  73
    x[14]     packing[48]  60
    x[15]     OBJ       27
    x[15]     packing[0]  182
    x[15]     packing[1]  73
    x[15]     packing[2]  130
    x[15]     packing[3]  164
    x[15]     packing[4]  24
    x[15]     packing[5]  173
    x[15]     packing[6]  186
    x[15]     packing[7]  85
    x[15]     packing[8]  11
    x[15]     packing[9]  120
    x[15]     packing[10]  144
    x[15]     packing[11]  103
    x[15]     packing[12]  23
    x[15]     packing[13]  35
    x[15]     packing[14]  173
    x[15]     packing[15]  104
    x[15]     packing[17]  69
    x[15]     packing[20]  131
    x[15]     packing[21]  32
    x[15]     packing[22]  178
    x[15]     packing[24]  100
    x[15]     packing[25]  162
    x[15]     packing[26]  100
    x[15]     packing[27]  33
    x[15]     packing[30]  184
    x[15]     packing[31]  180
    x[15]     packing[32]  141
    x[15]     packing[33]  177
    x[15]     packing[34]  70
    x[15]     packing[35]  153
    x[15]     packing[36]  111
    x[15]     packing[37]  62
    x[15]     packing[39]  103
    x[15]     packing[42]  82
    x[15]     packing[44]  33
    x[15]     packing[46]  109
    x[15]     packing[48]  46
    x[15]     packing[49]  87
    x[16]     OBJ       37
    x[16]     packing[1]  26
    x[16]     packing[2]  120
    x[16]     packing[3]  8
    x[16]     packing[4]  11
    x[16]     packing[5]  33
    x[16]     packing[7]  86
    x[16]     packing[8]  142
    x[16]     packing[9]  38
    x[16]     packing[10]  112
    x[16]     packing[11]  3
    x[16]     packing[12]  82
    x[16]     packing[14]  185
    x[16]     packing[15]  79
    x[16]     packing[16]  152
    x[16]     packing[18]  62
    x[16]     packing[19]  151
    x[16]     packing[20]  158
    x[16]     packing[21]  149
    x[16]     packing[23]  24
    x[16]     packing[24]  75
    x[16]     packing[25]  45
    x[16]     packing[26]  194
    x[16]     packing[27]  16
    x[16]     packing[28]  193
    x[16]     packing[29]  18
    x[16]     packing[30]  154
    x[16]     packing[32]  136
    x[16]     packing[33]  6
    x[16]     packing[35]  146
    x[16]     packing[36]  146
    x[16]     packing[37]  35
    x[16]     packing[38]  61
    x[16]     packing[39]  166
    x[16]     packing[40]  79
    x[16]     packing[41]  59
    x[16]     packing[42]  40
    x[16]     packing[43]  5
    x[16]     packing[44]  40
    x[16]     packing[45]  21
    x[16]     packing[46]  151
    x[16]     packing[47]  157
    x[16]     packing[48]  77
    x[16]     packing[49]  108
    x[17]     OBJ       100
    x[17]     packing[1]  70
    x[17]     packing[3]  92
    x[17]     packing[4]  88
    x[17]     packing[5]  188
    x[17]     packing[9]  85
    x[17]     packing[10]  191
    x[17]     packing[11]  38
    x[17]     packing[13]  63
    x[17]     packing[14]  79
    x[17]     packing[15]  199
    x[17]     packing[17]  72
    x[17]     packing[19]  3
    x[17]     packing[21]  184
    x[17]     packing[22]  125
    x[17]     packing[23]  85
    x[17]     packing[24]  163
    x[17]     packing[26]  190
    x[17]     packing[27]  43
    x[17]     packing[28]  174
    x[17]     packing[29]  118
    x[17]     packing[30]  120
    x[17]     packing[31]  196
    x[17]     packing[32]  101
    x[17]     packing[33]  84
    x[17]     packing[34]  27
    x[17]     packing[35]  134
    x[17]     packing[37]  133
    x[17]     packing[39]  28
    x[17]     packing[40]  81
    x[17]     packing[42]  69
    x[17]     packing[45]  84
    x[17]     packing[47]  176
    x[17]     packing[48]  180
    x[17]     packing[49]  134
    x[17]     R50       1
    x[18]     OBJ       132
    x[18]     packing[0]  76
    x[18]     packing[1]  157
    x[18]     packing[2]  167
    x[18]     packing[3]  132
    x[18]     packing[4]  198
    x[18]     packing[5]  82
    x[18]     packing[6]  22
    x[18]     packing[7]  91
    x[18]     packing[10]  2
    x[18]     packing[11]  133
    x[18]     packing[12]  121
    x[18]     packing[13]  163
    x[18]     packing[14]  90
    x[18]     packing[15]  130
    x[18]     packing[16]  31
    x[18]     packing[18]  136
    x[18]     packing[21]  129
    x[18]     packing[22]  41
    x[18]     packing[23]  13
    x[18]     packing[25]  109
    x[18]     packing[26]  197
    x[18]     packing[28]  168
    x[18]     packing[30]  84
    x[18]     packing[31]  133
    x[18]     packing[33]  96
    x[18]     packing[35]  18
    x[18]     packing[36]  161
    x[18]     packing[37]  168
    x[18]     packing[38]  76
    x[18]     packing[39]  149
    x[18]     packing[40]  159
    x[18]     packing[41]  110
    x[18]     packing[44]  79
    x[18]     packing[46]  14
    x[18]     packing[48]  172
    x[18]     packing[49]  43
    x[18]     R50       1
    x[19]     OBJ       33
    x[19]     packing[0]  169
    x[19]     packing[1]  134
    x[19]     packing[2]  11
    x[19]     packing[3]  144
    x[19]     packing[4]  130
    x[19]     packing[5]  89
    x[19]     packing[6]  186
    x[19]     packing[7]  166
    x[19]     packing[8]  70
    x[19]     packing[9]  114
    x[19]     packing[10]  21
    x[19]     packing[11]  126
    x[19]     packing[12]  45
    x[19]     packing[14]  168
    x[19]     packing[16]  131
    x[19]     packing[17]  40
    x[19]     packing[18]  59
    x[19]     packing[19]  1
    x[19]     packing[20]  149
    x[19]     packing[21]  145
    x[19]     packing[25]  142
    x[19]     packing[26]  22
    x[19]     packing[28]  181
    x[19]     packing[29]  72
    x[19]     packing[30]  191
    x[19]     packing[31]  65
    x[19]     packing[32]  154
    x[19]     packing[33]  183
    x[19]     packing[34]  28
    x[19]     packing[35]  50
    x[19]     packing[37]  42
    x[19]     packing[38]  184
    x[19]     packing[39]  188
    x[19]     packing[40]  156
    x[19]     packing[41]  39
    x[19]     packing[42]  136
    x[19]     packing[43]  147
    x[19]     packing[44]  167
    x[19]     packing[45]  197
    x[19]     packing[47]  102
    x[19]     packing[48]  130
    x[19]     packing[49]  111
    x[20]     OBJ       196
    x[20]     packing[2]  13
    x[20]     packing[3]  68
    x[20]     packing[4]  145
    x[20]     packing[6]  73
    x[20]     packing[7]  79
    x[20]     packing[8]  36
    x[20]     packing[9]  8
    x[20]     packing[10]  7
    x[20]     packing[12]  16
    x[20]     packing[13]  194
    x[20]     packing[18]  23
    x[20]     packing[19]  68
    x[20]     packing[22]  149
    x[20]     packing[23]  199
    x[20]     packing[25]  151
    x[20]     packing[26]  66
    x[20]     packing[27]  46
    x[20]     packing[28]  168
    x[20]     packing[29]  88
    x[20]     packing[31]  84
    x[20]     packing[32]  81
    x[20]     packing[33]  101
    x[20]     packing[34]  159
    x[20]     packing[35]  47
    x[20]     packing[37]  59
    x[20]     packing[38]  145
    x[20]     packing[42]  30
    x[20]     packing[43]  54
    x[20]     packing[44]  83
    x[20]     packing[45]  49
    x[20]     packing[46]  119
    x[20]     packing[47]  132
    x[20]     packing[49]  92
    x[20]     R50       1
    MARKER    'MARKER'                 'INTEND'
RHS
    RHS1      packing[0]  746
    RHS1      packing[1]  796
    RHS1      packing[2]  801
    RHS1      packing[3]  715
    RHS1      packing[4]  741
    RHS1      packing[5]  721
    RHS1      packing[6]  761
    RHS1      packing[7]  615
    RHS1      packing[8]  599
    RHS1      packing[9]  660
    RHS1      packing[10]  575
    RHS1      packing[11]  726
    RHS1      packing[12]  547
    RHS1      packing[13]  610
    RHS1      packing[14]  756
    RHS1      packing[15]  732
    RHS1      packing[16]  700
    RHS1      packing[17]  654
    RHS1      packing[18]  496
    RHS1      packing[19]  577
    RHS1      packing[20]  619
    RHS1      packing[21]  676
    RHS1      packing[22]  743
    RHS1      packing[23]  833
    RHS1      packing[24]  889
    RHS1      packing[25]  948
    RHS1      packing[26]  857
    RHS1      packing[27]  688
    RHS1      packing[28]  815
    RHS1      packing[29]  737
    RHS1      packing[30]  566
    RHS1      packing[31]  692
    RHS1      packing[32]  1057
    RHS1      packing[33]  1011
    RHS1      packing[34]  571
    RHS1      packing[35]  798
    RHS1      packing[36]  738
    RHS1      packing[37]  643
    RHS1      packing[38]  775
    RHS1      packing[39]  691
    RHS1      packing[40]  728
    RHS1      packing[41]  864
    RHS1      packing[42]  769
    RHS1      packing[43]  752
    RHS1      packing[44]  663
    RHS1      packing[45]  684
    RHS1      packing[46]  728
    RHS1      packing[47]  756
    RHS1      packing[48]  759
    RHS1      packing[49]  980
    RHS1      R50       6
BOUNDS
 BV BND1      x[1]    
 BV BND1      x[2]    
 BV BND1      x[3]    
 BV BND1      x[4]    
 BV BND1      x[5]    
 BV BND1      x[6]    
 BV BND1      x[7]    
 BV BND1      x[8]    
 BV BND1      x[9]    
 BV BND1      x[10]   
 BV BND1      x[11]   
 BV BND1      x[12]   
 BV BND1      x[13]   
 BV BND1      x[14]   
 BV BND1      x[15]   
 BV BND1      x[16]   
 BV BND1      x[17]   
 BV BND1      x[18]   
 BV BND1      x[19]   
 BV BND1      x[20]   
ENDATA
